c 
c MolecularSimulation 0.9.3
c Simulation written: Jan 13 2012 -- 15:17:57
c Test: Distribution
c Input: ./data/testCNF/SWEEP_R2_K3_N20_M24_S002.cnf
c 
s SATISFIABLE
v 1 2 3 -4 10 11 13 14 15 -16 -17 -18 0
c algorithmTime:  384
c solutionMemory: 940283
c mixCount:       69
c extractCount:   0
c appendCount:    9151857
c splitCount:     69
c spliceCount:    4192744
c purifyCount:    23
c 
